1000
[151,222,230,236,244,247,288,290,298,309,317,337,358,367,369,370,371,378,379,390,398,403,420,423,433,435,448,475,480,482,484,499,513,520,537,547,553,573,578,607,621,651,669,671,672,677,688,693,699]
[1,1,1,2,1,1,1,1,1,1,1,1,1,1,1,1,1,1,1,1,1,1,1,1,1,1,1,1,1,1,1,1,1,1,1,1,1,1,1,1,1,1,1,1,1,1,1,1,1]
